(declare-fun e () String)
(declare-fun g () String)
(declare-fun b () String)
(declare-fun d () String)
(declare-fun a () String)
(declare-fun h () String)
(assert (= (str.++ b g) (str.++ d "fd" a)))
(assert (= (str.++ a e) (str.++ b "g" e d)))
(assert (= h "g"))

(check-sat)
